%NProcShared=8
%mem=16gb
%chk=Camorf
#p b3lyp gen SCF=(xqc,Tight,intrep,NoVarAcc,Maxcycle=512) GFInput
     IOp(6/7=3) symm=loose  int=(grid=ultrafine) scrf=(solvent=water) pop=(mk,nbo)

test

0 1
C      -1    -2.30683     -0.61452     -3.77362
C      -1    -5.85897     -0.90969     -3.45863
C      -1     5.06757     -0.85359     -3.76797
C      -1    -3.44309     -0.81687      0.68132
C      -1     7.56444     -0.57938      0.56975
C      -1    -6.28282     -0.68805      3.31841
C      -1     4.66773     -0.69197      3.21597
C      -1    -1.93300     -0.70351      0.75187
C      -1    -5.56011     -1.06341      1.95614
C      -1     5.43884     -0.92633      1.84996
C      -1     6.07040      1.43243      4.30843
C      -1    -4.89019      1.37826      4.36810
C      -1     5.96779     -0.42096     -1.57876
C      -1    -5.02030     -0.54081     -1.41171
C      -1    -0.02314      0.36311      0.26182
C      -1    -4.26232     -0.20109      1.81670
C      -1     6.75687     -0.03586      1.75151
C      -1    -7.88353     -0.05475      1.89420
C      -1     3.05551     -0.03488      1.71304
C      -1    -3.80050     -0.34356     -0.67132
C      -1     5.45451      3.97685     -6.00028
C      -1    -1.41288      2.28591      4.20462
C      -1    -6.72071      0.50720     -3.75514
C      -1     4.27842      0.54678     -3.91630
C      -1    -8.45360      0.63854     -1.32662
C      -1     2.39695      0.71089     -1.37355
C      -1     5.97069      2.49458     -5.47091
C      -1    -6.61433     -0.33692      0.99804
C      -1     4.37549     -0.29943      0.87697
C      -1     1.81737      1.56817     -5.68763
C      -1     1.92417      0.99645      5.51760
C      -1    -1.50372      0.83118      0.58986
C      -1     8.03760      2.99779     -2.82703
C      -1    -0.35644      2.83150     -6.21016
C      -1    -0.09039      2.31211      4.98496
C      -1     2.66742      3.61407     -2.31679
C      -1    -2.50367      1.52828     -1.99277
C      -1    -5.92372      1.89826     -4.17067
C      -1     5.06636      1.95426     -4.26077
C      -1    -8.20017      2.28651     -3.01219
C      -1     2.81946      2.32485     -3.14372
C      -1     8.77600      4.08324     -2.13509
C      -1     1.13592      4.05205      1.04469
C      -1     6.25733      3.56655     -1.15726
C      -1    -8.10430      1.41417      2.31054
C      -1     2.82302      1.54525      2.10500
C      -1    -7.33721      1.16548     -2.42078
C      -1     3.59316      1.21028     -2.50044
C      -1     4.15101      3.77721      4.85619
C      -1     1.72734      3.38987     -1.23071
C      -1     4.84580      3.01352     -1.02075
C      -1    -5.38115      2.58710      1.47171
C      -1     5.61915      2.65222      1.40191
C      -1    -4.00603      2.36589      0.98734
C      -1     6.98422      2.45037      0.92866
C      -1     0.30813      2.86654      0.94012
C      -1    -6.12388      1.70065     -1.83390
C      -1     4.89575      1.82593     -1.90107
C      -1     1.49211      1.88009      2.93469
C      -1     3.27647      2.64983      4.37474
C      -1    -0.26194      2.56216     -0.52732
C      -1     1.05924      1.58226      4.40924
C      -1     0.72751      1.65584      0.00245
C      -1    -4.79784      1.10510      1.19889
C      -1     6.31022      1.22637      1.02992
C      -1     7.37332      1.35740     -1.18430
C      -1    -3.74513      1.19852     -1.06707
C      -1     2.61989      3.87346      1.14138
C      -1    -5.35012      0.76946     -1.05142
C      -1     5.74806      0.93858     -1.17783
C      -1    -1.58721      1.95354     -0.66534
C      -1    -8.86276      1.85837     -0.36864
C      -1     2.10516      2.00745     -0.52390
C      -1     2.98647      2.53144     -5.66975
C      -1     3.09625      1.86395      5.65087
C      -1     3.60614      2.68300     -4.34083
C      -1    -5.95947      0.91396      0.34768
C      -1     5.11020      0.99137      0.24729
C      -1     1.81751      2.90146      4.02087
C      -1     7.26944      2.68159     -0.44658
C      -1    -3.80051      2.61466     -0.35567
C      -1    -7.91642      2.23602      0.91589
C      -1     2.99147      2.46183      0.81546
C      -1    -6.47408      2.29430      0.46416
C      -1     4.51573      2.38975      0.38600
C      -1     0.94500     -1.33682     -4.23377
C      -1    -0.16654     -1.50838     -5.06483
C      -1     0.00163     -2.13177      6.18690
C      -1     0.05020     -1.32434     -3.26698
C      -1    -6.52176     -1.92525     -2.50618
C      -1     4.42528     -1.78344     -2.72153
C      -1    -0.37542     -0.90346     -6.41347
C      -1    -0.22741     -1.49762      4.85004
C      -1    -5.71096     -2.41707      2.77329
C      -1     5.35816     -2.39627      2.59994
C      -1    -1.71225     -0.97556     -6.87540
C      -1     9.34447     -1.52024      4.20891
C      -1    -1.60506     -1.39386      4.46752
C      -1    -2.61030     -1.60140     -5.95996
C      -1    -2.45373     -2.12357      5.26689
C      -1    -1.15866     -1.56289     -3.97955
C      -1    -4.01387     -1.63628     -5.56781
C      -1    -3.86780     -2.21506      5.58634
C      -1     0.81199     -1.24129      3.74385
C      -1    -3.07802     -0.62804     -5.09324
C      -1    -2.97911     -1.27371      6.18859
C      -1    -5.36534     -1.28905     -6.00889
C      -1     5.71300     -1.20759     -6.18934
C      -1     5.84956     -1.64308      5.10220
C      -1    -5.16757     -1.89162      5.23336
C      -1     8.85803     -0.88704      3.03651
C      -1    -2.13006     -1.03587      3.18210
C      -1     0.27623     -0.40255     -2.21407
C      -1     0.16850     -1.12098      2.37863
C      -1    -5.73952     -1.79437      3.94591
C      -1     5.22113     -1.78860      3.85379
C      -1    -8.73493     -1.06818      4.18168
C      -1     2.22321     -0.99715      3.98269
C      -1     9.70134     -0.98264      1.91629
C      -1    -1.26504     -1.24256      2.08610
C      -1     4.72618     -0.99692     -5.20126
C      -1    -6.35189     -1.03089     -4.96841
C      -1     4.88419     -1.53300      6.10500
C      -1    -6.15552     -1.50552     -1.18990
C      -1     4.77108     -1.35299     -1.42440
C      -1    -3.24454     -1.24182     -2.83757
C      -1    -0.39335     -0.49960     -1.00608
C      -1     7.67676     -0.03612      2.97784
C      -1    -3.26145     -0.20335      3.10167
C      -1     0.70314     -0.46012      1.28070
C      -1    -1.57083     -1.15862     -0.69844
C      -1    -1.62209      1.71006     -4.26155
C      -1    -1.46447      1.16546      7.01425
C      -1    -8.54957      0.17604     -5.77370
C      -1     2.44095      0.19208     -5.86579
C      -1     2.63601     -0.38315      5.22764
C      -1    -7.28597     -0.04325     -5.10458
C      -1     3.73333      0.02505     -5.23462
C      -1     3.91044     -0.54681      5.98944
C      -1     1.29281      0.58579     -2.33262
C      -1    -2.75600     -1.00142     -1.51211
C      -1     7.36250      0.84177      3.98752
C      -1    -3.55742      0.78611      4.08649
C      -1    -7.11263     -1.25504     -0.19034
C      -1     3.84624     -1.14750     -0.31745
C      -1    -8.87310     -0.54955      0.94509
C      -1     2.04925     -0.68463      0.85673
C      -1    -4.51324     -0.62167     -2.90612
C      -1     6.39607     -0.52569     -3.01295
C      -1    -7.74260     -0.97567      3.13832
C      -1     3.22478     -0.83462      2.94262
C      -1    -8.31290     -0.69710     -0.40328
C      -1     2.54836     -0.67506     -0.44285
C      -1     8.24814      2.16135     -6.52656
C      -1    -2.76061      2.04323     -6.39914
C      -1    -2.60343      1.48062      4.83573
C      -1    -2.63173      2.67400     -4.13728
C      -1     8.40596      2.81491     -4.31413
C      -1    -2.48494      2.10276      7.06730
C      -1    -1.89618      0.78000     -3.33140
C      -1    -3.42876      2.58990     -5.24965
C      -1     7.55127      2.60730     -5.37153
C      -1    -3.30103      1.91904      5.94034
C      -1    -0.36641      2.12410     -4.86291
C      -1    -0.23078      1.64312      6.33627
C      -1     0.86563      1.58060     -4.52963
C      -1     0.96304      0.93935      6.66231
C      -1     1.47525      1.60662     -3.29683
C      -1    -1.82392      1.61973      1.78549
C      -1    -6.16161      0.73055      3.81670
C      -1     4.74704      0.85747      3.69138
C      -1    -0.98873      1.70970      2.78737
C      -1    -4.79510      2.93129      3.96221
C      -1     6.12532      2.92752      3.85030
C      -1     4.72873      4.55631      2.79205
C      -1     5.53090      3.46659      2.73514
C      -1    -2.86240      2.40600      1.85145
C      -1    -7.16796      1.61781      3.46652
C      -1     3.80129      1.70501      3.34825
C      -1     6.55857      3.18113     -2.61315
C      -1     0.21845      2.06078      2.23379
C      -1    -5.32659      2.16337     -2.91589
C      -1     5.65416      2.21729     -2.96590
C      -1     0.26225      3.32081     -1.58021
C      -1    -8.85799     -2.11602     -3.62821
C      -1     2.08844     -1.96276     -3.87302
C      -1    -7.79734     -2.24190     -3.07127
C      -1     3.16832     -2.07645     -3.35587
C      -1     6.30069     -2.29464      1.56810
C      -1    -4.71497     -2.53823      1.79947
C      -1    -3.95185     -2.06418      1.08910
C      -1     7.08344     -1.81006      0.84769

1-192 0
Choose Basis Set
****

